RAW/XT/fspd/X-n125-k30.vrp_seed-8.out
50410	23.407	39.698
