RAW/XT/fspd/X-n125-k30.vrp_seed-8.sol
Route #1: 64 29 119 45
Route #2: 8 39 53
Route #3: 103 12
Route #4: 51 105 89 88 115
Route #5: 26
Route #6: 73 122 61
Route #7: 75 37
Route #8: 76 106 43 52
Route #9: 102 38 60
Route #10: 18 100 99 110
Route #11: 3 31
Route #12: 93 96
Route #13: 112 35 120
Route #14: 111 86
Route #15: 21 83
Route #16: 113 33 5
Route #17: 101 77 7 4 58 94
Route #18: 54 72 67 41 107 20 95
Route #19: 32 69 121 84
Route #20: 62 85 117 109 25 118 40 22 47 68
Route #21: 108 27 1 46 63 79 36 55 30
Route #22: 82 56
Route #23: 91 57 10 48
Route #24: 78 28 9 59 124 2 50 116
Route #25: 34 6 70 19 11 114 87 16 90
Route #26: 98 71 104 65 80
Route #27: 24 49 13 97 44 123 14
Route #28: 23 66 17 15 92 81 42 74
Cost 50410.000000